language ESSENCE' 1.0

letting network_ExplicitWithFlagsR5_Flags be [3, 1, 1, 1, 0, 0; int(1..6)]
letting network_ExplicitWithFlagsR5_Values_ExplicitVarSizeWithMarker_Marker be [0, 2, 5, 5, 0, 0; int(1..6)]
letting network_ExplicitWithFlagsR5_Values_ExplicitVarSizeWithMarker_Values be
        [[1, 1, 1, 1, 1; int(1..5)], [4, 9, 1, 1, 1; int(1..5)], [1, 2, 4, 5, 10; int(1..5)],
         [1, 3, 5, 6, 8; int(1..5)], [1, 1, 1, 1, 1; int(1..5)], [1, 1, 1, 1, 1; int(1..5)];
             int(1..6)]
$ Visualisation for network_ExplicitWithFlagsR5_Values_ExplicitVarSizeWithMarker_Values
$  1  1  1  1  1
$  4  9  1  1  1
$  1  2  4  5 10
$  1  3  5  6  8
$  1  1  1  1  1
$  1  1  1  1  1

